param set_len = 30;
param target_sum = 1036866687;
param values := [1] 103807332 [2] 2701445 [3] 1768633 [4] 12777786 [5] 119762727 [6] 51193412 [7] 59381364 [8] 123835917 [9] 23385528 [10] 108624755 [11] 127451866 [12] 5688937 [13] 78249035 [14] 44386187 [15] 32910205 [16] 82727293 [17] 76547067 [18] 32539693 [19] 82706756 [20] 83187429 [21] 106354974 [22] 44523810 [23] 80449598 [24] 39537002 [25] 37358957 [26] 52202856 [27] 64331617 [28] 108380956 [29] 93003191 [30] 69134480 ;
